GLPSOL: GLPK LP/MIP Solver, v4.65
Parameter(s) specified in the command line:
 --model solver_drone.mod --data solver_drone_data_30.dat --output solver_drone_solution_30_9.log
 --log solver_drone_cmd_output_30_9.log --tmlim 60
Reading model section from solver_drone.mod...
41 lines were read
Reading data section from solver_drone_data_30.dat...
99 lines were read
Generating f...
Generating package_deliverd_once...
Generating package_well_delivered...
Generating time_spent_flying...
Generating autonomy_not_exceeded...
Generating check_time_max...
Model has been successfully generated
GLPK Integer Optimizer, v4.65
16036 rows, 15913 columns, 48250 non-zeros
15913 integer variables, 15903 of which are binary
Preprocessing...
132 rows, 15913 columns, 32346 non-zeros
15913 integer variables, 15903 of which are binary
Scaling...
 A: min|aij| =  1.000e+00  max|aij| =  1.312e+03  ratio =  1.312e+03
GM: min|aij| =  4.456e-01  max|aij| =  2.244e+00  ratio =  5.037e+00
EQ: min|aij| =  1.985e-01  max|aij| =  1.000e+00  ratio =  5.037e+00
2N: min|aij| =  1.016e-01  max|aij| =  1.000e+00  ratio =  9.846e+00
Constructing initial basis...
Size of triangular part is 132
Solving LP relaxation...
GLPK Simplex Optimizer, v4.65
132 rows, 15913 columns, 32346 non-zeros
      0: obj =   0.000000000e+00 inf =   1.098e+03 (1)
    168: obj =   3.902222222e+03 inf =   3.628e-13 (0) 1
*   225: obj =   3.902222222e+03 inf =   3.018e-13 (0)
OPTIMAL LP SOLUTION FOUND
Integer optimization begins...
Long-step dual simplex will be used
+   225: mip =     not found yet >=              -inf        (1; 0)
+  4181: >>>>>   4.588000000e+03 >=   3.903000000e+03  14.9% (90; 0)
+  7468: >>>>>   4.248000000e+03 >=   3.903000000e+03   8.1% (184; 9)
+ 13065: >>>>>   4.236000000e+03 >=   3.903000000e+03   7.9% (209; 230)
+ 14894: >>>>>   4.228000000e+03 >=   3.903000000e+03   7.7% (231; 289)
+ 16672: >>>>>   4.144000000e+03 >=   3.903000000e+03   5.8% (203; 472)
+ 19114: >>>>>   4.132000000e+03 >=   3.903000000e+03   5.5% (258; 483)
+ 29240: >>>>>   4.100000000e+03 >=   3.903000000e+03   4.8% (387; 717)
+ 30861: >>>>>   4.088000000e+03 >=   3.903000000e+03   4.5% (381; 849)
+ 32356: >>>>>   4.068000000e+03 >=   3.903000000e+03   4.1% (423; 883)
+ 34740: >>>>>   4.024000000e+03 >=   3.903000000e+03   3.0% (488; 891)
+ 43586: >>>>>   3.972000000e+03 >=   3.903000000e+03   1.7% (626; 1079)
+ 45595: >>>>>   3.944000000e+03 >=   3.903000000e+03   1.0% (577; 1281)
+ 53540: >>>>>   3.936000000e+03 >=   3.903000000e+03   0.8% (769; 1404)
+ 61514: mip =   3.936000000e+03 >=   3.903000000e+03   0.8% (976; 1497)
+ 71828: mip =   3.936000000e+03 >=   3.903000000e+03   0.8% (1273; 1508)
+ 78985: mip =   3.936000000e+03 >=   3.903000000e+03   0.8% (1578; 1521)
+ 86715: >>>>>   3.932000000e+03 >=   3.903000000e+03   0.7% (1885; 1531)
+ 95916: mip =   3.932000000e+03 >=   3.903000000e+03   0.7% (2122; 1670)
+104668: >>>>>   3.924000000e+03 >=   3.903000000e+03   0.5% (2446; 1679)
+114067: mip =   3.924000000e+03 >=   3.903000000e+03   0.5% (2512; 2117)
Time used: 60.0 secs.  Memory used: 53.2 Mb.
+116673: mip =   3.924000000e+03 >=   3.903000000e+03   0.5% (2621; 2138)
TIME LIMIT EXCEEDED; SEARCH TERMINATED
Time used:   60.1 secs
Memory used: 53.8 Mb (56448652 bytes)
The package 1 is delivered by the drone 4 to the house 1
The package 2 is delivered by the drone 2 to the house 1
The package 3 is delivered by the drone 7 to the house 1
The package 4 is delivered by the drone 5 to the house 2
The package 5 is delivered by the drone 4 to the house 2
The package 6 is delivered by the drone 9 to the house 2
The package 7 is delivered by the drone 2 to the house 3
The package 8 is delivered by the drone 3 to the house 3
The package 9 is delivered by the drone 9 to the house 4
The package 10 is delivered by the drone 8 to the house 4
The package 11 is delivered by the drone 9 to the house 5
The package 12 is delivered by the drone 8 to the house 5
The package 13 is delivered by the drone 6 to the house 6
The package 14 is delivered by the drone 2 to the house 6
The package 15 is delivered by the drone 3 to the house 7
The package 16 is delivered by the drone 6 to the house 8
The package 17 is delivered by the drone 6 to the house 8
The package 18 is delivered by the drone 8 to the house 10
The package 19 is delivered by the drone 5 to the house 10
The package 20 is delivered by the drone 8 to the house 10
The package 21 is delivered by the drone 9 to the house 11
The package 22 is delivered by the drone 8 to the house 11
The package 23 is delivered by the drone 9 to the house 11
The package 24 is delivered by the drone 6 to the house 12
The package 25 is delivered by the drone 4 to the house 12
The package 26 is delivered by the drone 7 to the house 12
The package 27 is delivered by the drone 8 to the house 14
The package 28 is delivered by the drone 2 to the house 14
The package 29 is delivered by the drone 4 to the house 15
The package 30 is delivered by the drone 2 to the house 15
The package 31 is delivered by the drone 8 to the house 16
The package 32 is delivered by the drone 9 to the house 17
The package 33 is delivered by the drone 4 to the house 17
The package 34 is delivered by the drone 2 to the house 19
The package 35 is delivered by the drone 5 to the house 19
The package 36 is delivered by the drone 4 to the house 19
The package 37 is delivered by the drone 1 to the house 20
The package 38 is delivered by the drone 3 to the house 20
The package 39 is delivered by the drone 2 to the house 21
The package 40 is delivered by the drone 7 to the house 21
The package 41 is delivered by the drone 6 to the house 21
The package 42 is delivered by the drone 5 to the house 23
The package 43 is delivered by the drone 6 to the house 23
The package 44 is delivered by the drone 1 to the house 24
The package 45 is delivered by the drone 8 to the house 24
The package 46 is delivered by the drone 3 to the house 24
The package 47 is delivered by the drone 5 to the house 25
The package 48 is delivered by the drone 5 to the house 25
The package 49 is delivered by the drone 4 to the house 26
The package 50 is delivered by the drone 3 to the house 27
The package 51 is delivered by the drone 3 to the house 28
The package 52 is delivered by the drone 7 to the house 28
The package 53 is delivered by the drone 1 to the house 28
The package 54 is delivered by the drone 1 to the house 29
The package 55 is delivered by the drone 1 to the house 29
The package 56 is delivered by the drone 6 to the house 29
The package 57 is delivered by the drone 7 to the house 31
Model has been successfully processed
Writing MIP solution to 'solver_drone_solution_30_9.log'...
